* #variable= 60 #constraint= 3 
+1 x1 -1 x31 +2 x2 -2 x32 +4 x3 -4 x33 +8 x4 -8 x34 +16 x5 -16 x35 +32 x6 -32 x36 +64 x7 -64 x37 +128 x8 -128 x38 +256 x9 -256 x39 +512 x10 -512 x40 +1024 x11 -1024 x41 +2048 x12 -2048 x42 +4096 x13 -4096 x43 +8192 x14 -8192 x44 +16384 x15 -16384 x45 +32768 x16 -32768 x46 +65536 x17 -65536 x47 +131072 x18 -131072 x48 +262144 x19 -262144 x49 +524288 x20 -524288 x50 +1048576 x21 -1048576 x51 +2097152 x22 -2097152 x52 +4194304 x23 -4194304 x53 +8388608 x24 -8388608 x54 +16777216 x25 -16777216 x55 +33554432 x26 -33554432 x56 +67108864 x27 -67108864 x57 +134217728 x28 -134217728 x58 +268435456 x29 -268435456 x59 +536870912 x30 -536870912 x60 = 0 ;
-1 x1 -1 x31 >= -1; 
+1 x1 +1 x31 >= 1; 
